
Gurobi 10.0.1 (linux64) logging started Sun Nov 26 15:39:45 2023

Set parameter LogFile to value "ArtificialInstance/ExperimentV2/S2T3K1/BaRo/gurobi91.txt"
Gurobi Optimizer version 10.0.1 build v10.0.1rc0 (linux64)

CPU model: AMD EPYC 7H12 64-Core Processor, instruction set [SSE2|AVX|AVX2]
Thread count: 128 physical cores, 128 logical processors, using up to 32 threads

Academic license 656792 - for non-commercial use only - registered to b.___@student.vu.nl
Optimize a model with 792 rows, 1201 columns and 4002 nonzeros
Model fingerprint: 0xabf1e69c
Variable types: 1 continuous, 1200 integer (1200 binary)
Coefficient statistics:
  Matrix range     [1e+00, 4e+01]
  Objective range  [1e+00, 2e+01]
  Bounds range     [1e+00, 1e+00]
  RHS range        [1e+00, 1e+00]
Found heuristic solution: objective 526.6577290
Presolve time: 0.01s
Presolved: 792 rows, 1201 columns, 4002 nonzeros
Variable types: 1 continuous, 1200 integer (1200 binary)

Root relaxation: objective 2.585166e+01, 788 iterations, 0.02 seconds (0.01 work units)

    Nodes    |    Current Node    |     Objective Bounds      |     Work
 Expl Unexpl |  Obj  Depth IntInf | Incumbent    BestBd   Gap | It/Node Time

     0     0   25.85166    0   36  526.65773   25.85166  95.1%     -    0s
H    0     0                      26.2390574   25.85166  1.48%     -    0s

Cutting planes:
  Gomory: 4
  Zero half: 8

Explored 1 nodes (1153 simplex iterations) in 0.04 seconds (0.02 work units)
Thread count was 32 (of 128 available processors)

Solution count 2: 26.2391 526.658 

Optimal solution found (tolerance 1.00e-04)
Best objective 2.623905743784e+01, best bound 2.623905743784e+01, gap 0.0000%
